15 3 
5796	5796	5796	
525	410	437	
793	219	234	
183	892	955	
609	332	344	
611	304	318	
44	379	403	
167	195	197	
522	579	620	
267	637	666	
900	769	798	
7	705	707	
334	157	171	
405	215	220	
878	986	1010	
363	949	966	
